c WARNING: for repeatability, setting FPU to use double precision
d VARIABLES            135320       
d CONSTRAINTS          572637       
c ============================[ Problem Statistics ]=============================
c |                                                                             |
c |  Number of variables:        135320                                         |
c |  Number of clauses:          572637                                         |
c |  Parse time:                   0.08 s                                       |
c |                                                                             |
c ============================[ Search Statistics ]==============================
c | Conflicts |          ORIGINAL         |          LEARNT          | Progress |
c |           |    Vars  Clauses Literals |    Limit  Clauses Lit/Cl |          |
c ===============================================================================
c |       100 |  107552   501599  1217941 |   183919      100     41 | 20.520 % |
c |       250 |  107552   501599  1217941 |   202311      250     73 | 20.520 % |
c |       475 |  107552   501599  1217941 |   222542      475     83 | 20.520 % |
c |       812 |  107552   501599  1217941 |   244797      812    114 | 20.520 % |
c |      1318 |  107552   501599  1217941 |   269276     1318    164 | 20.520 % |
c |      2077 |  107552   501599  1217941 |   296204     2077    147 | 20.520 % |
c |      3216 |  107552   501599  1217941 |   325824     3216    140 | 20.520 % |
c |      4924 |  107552   501599  1217941 |   358407     4924    151 | 20.520 % |
c |      7486 |  107552   501599  1217941 |   394248     7486    168 | 20.520 % |
c |     11330 |  107552   501599  1217941 |   433672    11330    170 | 20.520 % |
c |     17096 |  107552   501599  1217941 |   477040    17096    202 | 20.520 % |
c |     25745 |  107552   501599  1217941 |   524744    25745    221 | 20.520 % |
c |     38719 |  107551   501594  1217929 |   577218    38718    235 | 20.521 % |
c |     58180 |  107551   501594  1217929 |   634940    58179    225 | 20.521 % |
c |     87372 |  107551   501594  1217929 |   698434    87371    223 | 20.521 % |
c |    131161 |  107551   501594  1217929 |   768277   131160    250 | 20.521 % |
c |    196845 |  107535   501559  1217845 |   845105   196841    259 | 20.533 % |
c |    295371 |  107535   501514  1217737 |   929616   295367    287 | 20.533 % |
c |    443160 |  107535   501514  1217737 |  1022577   443156    276 | 20.533 % |
c |    664843 |  107527   501504  1217713 |  1124835   664837    284 | 20.539 % |
c |    997368 |  107518   501429  1217533 |  1237319   997360    277 | 20.545 % |
c |   1496156 |  107512   501399  1217461 |  1361051   265967    210 | 20.550 % |
c ===============================================================================
c restarts              : 3644
c conflicts             : 1889368        (1053 /sec)
c decisions             : 5348994        (0.00 % random) (2982 /sec)
c propagations          : 4830008466     (2692594 /sec)
c conflict literals     : 519942476      (41.31 % deleted)
d RESTARTS             3644
d FAILURES             1889368      
d NODES                5348994      
d BACKTRACKS           5348994      
d PROPAGATIONS         4830008466   
d NOGOODSIZE           275.19 
d MEMORY               1606.00 
d TIME                 1793.81 

s UNKNOWN
